NAME          BLANK   
ROWS
 N  OBJROW
 L  R0000000
COLUMNS
    C0000000  OBJROW     -392.         R0000000  908.        
    C0000001  OBJROW     -865.         R0000000  607.        
    C0000002  OBJROW     -914.         R0000000  810.        
    C0000003  OBJROW     -169.         R0000000  960.        
    C0000004  OBJROW     -184.         R0000000  59.         
    C0000005  OBJROW     -435.         R0000000  446.        
    C0000006  OBJROW     -638.         R0000000  940.        
    C0000007  OBJROW     -588.         R0000000  302.        
    C0000008  OBJROW     -366.         R0000000  581.        
    C0000009  OBJROW     -940.         R0000000  668.        
    C0000010  OBJROW     -591.         R0000000  454.        
    C0000011  OBJROW     -154.         R0000000  485.        
    C0000012  OBJROW     -520.         R0000000  70.         
    C0000013  OBJROW     -474.         R0000000  701.        
    C0000014  OBJROW     -776.         R0000000  62.         
    C0000015  OBJROW     -386.         R0000000  253.        
    C0000016  OBJROW     -417.         R0000000  78.         
    C0000017  OBJROW     -832.         R0000000  997.        
    C0000018  OBJROW     -226.         R0000000  110.        
    C0000019  OBJROW     -16.          R0000000  667.        
RHS
    RHS       R0000000  5079.       
BOUNDS
 BV BOUND     C0000000  1.          
 BV BOUND     C0000001  1.          
 BV BOUND     C0000002  1.          
 BV BOUND     C0000003  1.          
 BV BOUND     C0000004  1.          
 BV BOUND     C0000005  1.          
 BV BOUND     C0000006  1.          
 BV BOUND     C0000007  1.          
 BV BOUND     C0000008  1.          
 BV BOUND     C0000009  1.          
 BV BOUND     C0000010  1.          
 BV BOUND     C0000011  1.          
 BV BOUND     C0000012  1.          
 BV BOUND     C0000013  1.          
 BV BOUND     C0000014  1.          
 BV BOUND     C0000015  1.          
 BV BOUND     C0000016  1.          
 BV BOUND     C0000017  1.          
 BV BOUND     C0000018  1.          
 BV BOUND     C0000019  1.          
ENDATA
